% Logging successfully configured
%%%mzn-stat: initTime=0.074727639
%%%mzn-stat: objective=603
%%%mzn-stat: nodes=298
%%%mzn-stat: restarts=0
%%%mzn-stat: peakDepth=85
%%%mzn-stat: solveTime=0.002689495
%%%mzn-stat: variables=206
%%%mzn-stat: propagators=126
%%%mzn-stat: failures=73
%%%mzn-stat: propagations=2198
%%%mzn-stat: nogoods=73
%%%mzn-stat: numAtomicConstraintsPropagated=0
%%%mzn-stat: allDifferentNumber1TotalHallSetSize=409
%%%mzn-stat: allDifferentNumber1NumberOfConflicts=73
%%%mzn-stat: allDifferentNumber1MaxHallSetSize=16
%%%mzn-stat: allDifferentNumber1PropagationsTotal=409
%%%mzn-stat: allDifferentNumber1PropagationsThatFoundConflict=73
%%%mzn-stat: circuitNumber2PropagationsThatFoundConflict=0
%%%mzn-stat: circuitNumber2TotalFixedEdgesAtConflict=0
%%%mzn-stat: circuitNumber2NumberOfConflicts=0
%%%mzn-stat: circuitNumber2PropagationsThatPruned=27
%%%mzn-stat: circuitNumber2PropagationsTotal=219
%%%mzn-stat: AverageConflictSize=3.5616438356164384
%%%mzn-stat: NumUnitNogoodsLearned=0
%%%mzn-stat: AverageLearnedNogoodLength=3.3972602739726026
%%%mzn-stat: AverageBacktrackAmount=0
%%%mzn-stat: AverageLbd=3.041095890410959
%%%mzn-stat: 2AutonomousSearchNumBackupCalled=72
%%%mzn-stat: 2AutonomousSearchNumPredicatesRemoved=0
%%%mzn-stat: 2AutonomousSearchNumCalls=73
%%%mzn-stat: 2AutonomousSearchNumPredicatesAdded=232
%%%mzn-stat: 2AutonomousSearchAverageSizeOfHeap=3.1780821917808217
%%%mzn-stat: 2AutonomousSearchNumAssignedPredicatesEncountered=232
%%%mzn-stat-end
maxleg = 603;
succ = array1d(1..20,[4, 6, 8, 5, 12, 18, 2, 15, 16, 1, 3, 14, 10, 7, 19, 17, 11, 9, 20, 13]);
% time elapsed: 12.56 s
----------
%%%mzn-stat: initTime=0.074727639
%%%mzn-stat: objective=474
%%%mzn-stat: nodes=457
%%%mzn-stat: restarts=0
%%%mzn-stat: peakDepth=85
%%%mzn-stat: solveTime=0.004953584
%%%mzn-stat: variables=206
%%%mzn-stat: propagators=126
%%%mzn-stat: failures=88
%%%mzn-stat: propagations=3121
%%%mzn-stat: nogoods=88
%%%mzn-stat: numAtomicConstraintsPropagated=0
%%%mzn-stat: allDifferentNumber1TotalHallSetSize=448
%%%mzn-stat: allDifferentNumber1NumberOfConflicts=88
%%%mzn-stat: allDifferentNumber1MaxHallSetSize=16
%%%mzn-stat: allDifferentNumber1PropagationsTotal=549
%%%mzn-stat: allDifferentNumber1PropagationsThatFoundConflict=88
%%%mzn-stat: circuitNumber2PropagationsThatFoundConflict=0
%%%mzn-stat: circuitNumber2TotalFixedEdgesAtConflict=0
%%%mzn-stat: circuitNumber2NumberOfConflicts=0
%%%mzn-stat: circuitNumber2PropagationsThatPruned=44
%%%mzn-stat: circuitNumber2PropagationsTotal=317
%%%mzn-stat: AverageConflictSize=3.375
%%%mzn-stat: NumUnitNogoodsLearned=0
%%%mzn-stat: AverageLearnedNogoodLength=3.2386363636363638
%%%mzn-stat: AverageBacktrackAmount=0
%%%mzn-stat: AverageLbd=2.9204545454545454
%%%mzn-stat: 2AutonomousSearchNumBackupCalled=138
%%%mzn-stat: 2AutonomousSearchNumPredicatesRemoved=0
%%%mzn-stat: 2AutonomousSearchNumCalls=140
%%%mzn-stat: 2AutonomousSearchNumPredicatesAdded=292
%%%mzn-stat: 2AutonomousSearchAverageSizeOfHeap=3.507142857142857
%%%mzn-stat: 2AutonomousSearchNumAssignedPredicatesEncountered=491
%%%mzn-stat-end
maxleg = 474;
succ = array1d(1..20,[4, 6, 11, 5, 12, 9, 2, 3, 18, 1, 17, 14, 10, 7, 13, 19, 16, 8, 20, 15]);
% time elapsed: 12.57 s
----------
%%%mzn-stat: initTime=0.074727639
%%%mzn-stat: objective=385
%%%mzn-stat: nodes=596
%%%mzn-stat: restarts=0
%%%mzn-stat: peakDepth=85
%%%mzn-stat: solveTime=0.006107467
%%%mzn-stat: variables=206
%%%mzn-stat: propagators=126
%%%mzn-stat: failures=115
%%%mzn-stat: propagations=4134
%%%mzn-stat: nogoods=115
%%%mzn-stat: numAtomicConstraintsPropagated=0
%%%mzn-stat: allDifferentNumber1TotalHallSetSize=609
%%%mzn-stat: allDifferentNumber1NumberOfConflicts=111
%%%mzn-stat: allDifferentNumber1MaxHallSetSize=16
%%%mzn-stat: allDifferentNumber1PropagationsTotal=687
%%%mzn-stat: allDifferentNumber1PropagationsThatFoundConflict=111
%%%mzn-stat: circuitNumber2PropagationsThatFoundConflict=4
%%%mzn-stat: circuitNumber2TotalFixedEdgesAtConflict=32
%%%mzn-stat: circuitNumber2NumberOfConflicts=4
%%%mzn-stat: circuitNumber2PropagationsThatPruned=59
%%%mzn-stat: circuitNumber2PropagationsTotal=405
%%%mzn-stat: AverageConflictSize=3.5565217391304347
%%%mzn-stat: NumUnitNogoodsLearned=0
%%%mzn-stat: AverageLearnedNogoodLength=3.4608695652173913
%%%mzn-stat: AverageBacktrackAmount=0
%%%mzn-stat: AverageLbd=3.026086956521739
%%%mzn-stat: 2AutonomousSearchNumBackupCalled=194
%%%mzn-stat: 2AutonomousSearchNumPredicatesRemoved=0
%%%mzn-stat: 2AutonomousSearchNumCalls=197
%%%mzn-stat: 2AutonomousSearchNumPredicatesAdded=444
%%%mzn-stat: 2AutonomousSearchAverageSizeOfHeap=4.050761421319797
%%%mzn-stat: 2AutonomousSearchNumAssignedPredicatesEncountered=798
%%%mzn-stat-end
maxleg = 385;
succ = array1d(1..20,[4, 7, 8, 10, 1, 2, 14, 18, 6, 13, 3, 5, 15, 12, 20, 17, 11, 9, 16, 19]);
% time elapsed: 12.57 s
----------
%%%mzn-stat: initTime=0.074727639
%%%mzn-stat: objective=364
%%%mzn-stat: nodes=674
%%%mzn-stat: restarts=0
%%%mzn-stat: peakDepth=85
%%%mzn-stat: solveTime=0.006455695
%%%mzn-stat: variables=206
%%%mzn-stat: propagators=126
%%%mzn-stat: failures=121
%%%mzn-stat: propagations=4508
%%%mzn-stat: nogoods=121
%%%mzn-stat: numAtomicConstraintsPropagated=0
%%%mzn-stat: allDifferentNumber1TotalHallSetSize=629
%%%mzn-stat: allDifferentNumber1NumberOfConflicts=117
%%%mzn-stat: allDifferentNumber1MaxHallSetSize=16
%%%mzn-stat: allDifferentNumber1PropagationsTotal=729
%%%mzn-stat: allDifferentNumber1PropagationsThatFoundConflict=117
%%%mzn-stat: circuitNumber2PropagationsThatFoundConflict=4
%%%mzn-stat: circuitNumber2TotalFixedEdgesAtConflict=32
%%%mzn-stat: circuitNumber2NumberOfConflicts=4
%%%mzn-stat: circuitNumber2PropagationsThatPruned=62
%%%mzn-stat: circuitNumber2PropagationsTotal=429
%%%mzn-stat: AverageConflictSize=3.5785123966942147
%%%mzn-stat: NumUnitNogoodsLearned=0
%%%mzn-stat: AverageLearnedNogoodLength=3.487603305785124
%%%mzn-stat: AverageBacktrackAmount=0
%%%mzn-stat: AverageLbd=3.0330578512396693
%%%mzn-stat: 2AutonomousSearchNumBackupCalled=246
%%%mzn-stat: 2AutonomousSearchNumPredicatesRemoved=0
%%%mzn-stat: 2AutonomousSearchNumCalls=250
%%%mzn-stat: 2AutonomousSearchNumPredicatesAdded=496
%%%mzn-stat: 2AutonomousSearchAverageSizeOfHeap=4.46
%%%mzn-stat: 2AutonomousSearchNumAssignedPredicatesEncountered=1115
%%%mzn-stat-end
maxleg = 364;
succ = array1d(1..20,[4, 7, 8, 10, 1, 2, 14, 18, 6, 13, 15, 5, 20, 12, 19, 17, 3, 9, 16, 11]);
% time elapsed: 12.57 s
----------
==========
% time elapsed: 12.57 s
%%%mzn-stat: initTime=0.074727639
%%%mzn-stat: objective=364
%%%mzn-stat: nodes=674
%%%mzn-stat: restarts=0
%%%mzn-stat: peakDepth=85
%%%mzn-stat: solveTime=0.00651221
%%%mzn-stat: variables=206
%%%mzn-stat: propagators=126
%%%mzn-stat: failures=122
%%%mzn-stat: propagations=4538
%%%mzn-stat: nogoods=122
%%%mzn-stat: numAtomicConstraintsPropagated=0
%%%mzn-stat: allDifferentNumber1TotalHallSetSize=649
%%%mzn-stat: allDifferentNumber1NumberOfConflicts=118
%%%mzn-stat: allDifferentNumber1MaxHallSetSize=20
%%%mzn-stat: allDifferentNumber1PropagationsTotal=731
%%%mzn-stat: allDifferentNumber1PropagationsThatFoundConflict=118
%%%mzn-stat: circuitNumber2PropagationsThatFoundConflict=4
%%%mzn-stat: circuitNumber2TotalFixedEdgesAtConflict=32
%%%mzn-stat: circuitNumber2NumberOfConflicts=4
%%%mzn-stat: circuitNumber2PropagationsThatPruned=62
%%%mzn-stat: circuitNumber2PropagationsTotal=430
%%%mzn-stat: AverageConflictSize=3.6065573770491803
%%%mzn-stat: NumUnitNogoodsLearned=1
%%%mzn-stat: AverageLearnedNogoodLength=3.4672131147540983
%%%mzn-stat: AverageBacktrackAmount=0
%%%mzn-stat: AverageLbd=3.0163934426229506
%%%mzn-stat: 2AutonomousSearchNumBackupCalled=246
%%%mzn-stat: 2AutonomousSearchNumPredicatesRemoved=0
%%%mzn-stat: 2AutonomousSearchNumCalls=250
%%%mzn-stat: 2AutonomousSearchNumPredicatesAdded=546
%%%mzn-stat: 2AutonomousSearchAverageSizeOfHeap=4.46
%%%mzn-stat: 2AutonomousSearchNumAssignedPredicatesEncountered=1115
%%%mzn-stat-end
